7
2147483647 56 68 33 72 7 99 
56 2147483647 22 70 61 22 70 
68 22 2147483647 53 48 64 31 
33 70 53 2147483647 95 45 3 
72 61 48 95 2147483647 69 89 
7 22 64 45 69 2147483647 28 
99 70 31 3 89 28 2147483647 
